%%%mzn-stat: initTime=0.00251631
%%%mzn-stat: objective=677
%%%mzn-stat: nodes=961
%%%mzn-stat: restarts=0
%%%mzn-stat: peakDepth=140
%%%mzn-stat: solveTime=0.046378673
%%%mzn-stat: variables=295
%%%mzn-stat: propagators=195
%%%mzn-stat: failures=773
%%%mzn-stat: propagations=59600
%%%mzn-stat: nogoods=773
%%%mzn-stat: AverageConflictSize=4.358344113842174
%%%mzn-stat: NumUnitNogoodsLearned=627
%%%mzn-stat: AverageLearnedNogoodLength=2.0763260025873223
%%%mzn-stat: AverageBacktrackAmount=0
%%%mzn-stat: AverageLbd=1.5304010349288486
%%%mzn-stat-end
maxleg = 677;
succ = array1d(1..20,[13, 15, 18, 16, 3, 2, 14, 19, 11, 20, 5, 9, 8, 10, 1, 7, 6, 4, 12, 17]);
% time elapsed: 7.02 s
----------
==========
% time elapsed: 7.02 s
%%%mzn-stat: initTime=0.00251631
%%%mzn-stat: objective=677
%%%mzn-stat: nodes=961
%%%mzn-stat: restarts=0
%%%mzn-stat: peakDepth=140
%%%mzn-stat: solveTime=0.046381843
%%%mzn-stat: variables=295
%%%mzn-stat: propagators=195
%%%mzn-stat: failures=773
%%%mzn-stat: propagations=59600
%%%mzn-stat: nogoods=773
%%%mzn-stat: AverageConflictSize=4.358344113842174
%%%mzn-stat: NumUnitNogoodsLearned=627
%%%mzn-stat: AverageLearnedNogoodLength=2.0763260025873223
%%%mzn-stat: AverageBacktrackAmount=0
%%%mzn-stat: AverageLbd=1.5304010349288486
%%%mzn-stat-end
